
Gurobi 10.0.1 (win64) logging started Tue Mar 21 17:13:51 2023

Set parameter LogFile to value "logFiles/N-1L-180D/N-1L-7U-36F-23V-180D-b-basic.log"
Gurobi Optimizer version 10.0.1 build v10.0.1rc0 (win64)

CPU model: Intel(R) Core(TM) i7-10700 CPU @ 2.90GHz, instruction set [SSE2|AVX|AVX2]
Thread count: 8 physical cores, 16 logical processors, using up to 16 threads

Optimize a model with 55135 rows, 842796 columns and 5283819 nonzeros
Model fingerprint: 0xa86da123
Variable types: 1464 continuous, 841332 integer (841332 binary)
Coefficient statistics:
  Matrix range     [1e+00, 2e+05]
  Objective range  [4e+01, 2e+07]
  Bounds range     [1e+00, 1e+00]
  RHS range        [1e+00, 3e+06]
Presolve removed 29404 rows and 90712 columns (presolve time = 5s) ...
Presolve removed 29421 rows and 90725 columns
Presolve time: 9.17s
Presolved: 25714 rows, 752071 columns, 4279416 nonzeros
Variable types: 1478 continuous, 750593 integer (750593 binary)
Deterministic concurrent LP optimizer: primal simplex, dual simplex, and barrier
Showing barrier log only...

Root barrier log...

Elapsed ordering time = 7s
Ordering time: 8.65s

Barrier statistics:
 AA' NZ     : 1.848e+06
 Factor NZ  : 5.685e+06 (roughly 360 MB of memory)
 Factor Ops : 4.952e+09 (less than 1 second per iteration)
 Threads    : 5

                  Objective                Residual
Iter       Primal          Dual         Primal    Dual     Compl     Time
   0  -5.18108180e+16  5.46202744e+13  7.32e+09 6.30e+05  2.31e+11    24s
   1  -1.28655960e+16  5.16053492e+13  1.82e+09 5.25e+05  5.79e+10    24s
   2  -2.50666722e+15  3.92467868e+13  3.60e+08 3.27e+04  1.15e+10    25s
   3  -3.10949374e+13  2.16449917e+13  4.45e+06 1.42e+02  1.58e+08    26s
   4  -5.01174834e+12  4.93599143e+12  7.16e+05 1.50e+01  2.62e+07    26s
   5  -1.69188738e+12  2.10198932e+12  2.41e+05 2.65e+00  9.14e+06    27s
   6  -6.25077459e+11  1.68851478e+12  8.91e+04 1.61e+00  3.94e+06    28s
   7  -3.48724422e+11  1.31189544e+12  4.97e+04 7.32e-01  2.40e+06    28s
   8  -3.32132770e+11  1.29787966e+12  4.73e+04 6.45e-01  2.32e+06    29s
   9  -1.91578110e+11  8.48784617e+11  2.74e+04 1.16e-09  1.35e+06    30s
  10  -5.70536154e+10  4.10884364e+11  8.34e+03 1.40e-09  4.82e+05    30s
  11  -2.40765886e+10  1.28191533e+11  3.65e+03 1.86e-09  1.57e+05    31s
  12  -6.39844122e+09  6.87946784e+10  1.13e+03 1.63e-09  6.45e+04    32s
  13  -2.84248128e+09  5.65565396e+10  6.26e+02 1.72e-09  4.71e+04    32s
  14  -1.08530154e+09  3.07825352e+10  3.76e+02 2.10e-09  2.52e+04    33s
  15   3.83674378e+08  2.34187338e+10  1.69e+02 3.32e-09  1.71e+04    34s
  16   8.55192153e+08  1.37055781e+10  1.05e+02 1.04e-08  9.68e+03    35s
  17   1.10725767e+09  1.22069269e+10  7.08e+01 1.14e-08  8.16e+03    35s
  18   1.28572118e+09  9.71491330e+09  4.70e+01 1.05e-08  6.14e+03    36s
  19   1.37608225e+09  8.42810949e+09  3.50e+01 9.53e-09  5.09e+03    37s
  20   1.45735092e+09  6.43840815e+09  2.43e+01 9.37e-09  3.61e+03    38s
  21   1.47755282e+09  4.94757298e+09  2.16e+01 1.07e-08  2.59e+03    39s
  22   1.52053054e+09  3.78744817e+09  1.57e+01 7.79e-09  1.73e+03    40s
  23   1.59469787e+09  2.67747283e+09  5.13e+00 9.55e-09  7.80e+02    41s
  24   1.61366268e+09  2.28519884e+09  2.63e+00 6.87e-09  4.69e+02    42s
  25   1.61880006e+09  2.21370176e+09  2.05e+00 6.12e-09  4.11e+02    42s
  26   1.62354756e+09  2.10014591e+09  1.54e+00 5.93e-09  3.26e+02    43s
  27   1.62577297e+09  2.03023208e+09  1.32e+00 5.58e-09  2.75e+02    44s
  28   1.63351795e+09  1.88438987e+09  6.04e-01 4.04e-09  1.68e+02    45s
  29   1.63563027e+09  1.79441141e+09  4.71e-01 3.79e-09  1.06e+02    45s
  30   1.64081578e+09  1.78025542e+09  2.33e-01 3.83e-09  9.28e+01    46s
  31   1.64101321e+09  1.75981198e+09  2.28e-01 3.79e-09  7.90e+01    47s
  32   1.64220181e+09  1.75177395e+09  1.99e-01 3.94e-09  7.28e+01    48s
  33   1.64554425e+09  1.73079458e+09  1.43e-01 3.72e-09  5.66e+01    49s
  34   1.64697533e+09  1.72422125e+09  1.26e-01 4.11e-09  5.13e+01    50s
  35   1.64878418e+09  1.71310561e+09  1.07e-01 4.20e-09  4.27e+01    51s
  36   1.65142055e+09  1.69773003e+09  8.34e-02 2.93e-09  3.07e+01    52s
  37   1.65492362e+09  1.68921694e+09  5.49e-02 3.06e-09  2.27e+01    53s
  38   1.65691680e+09  1.68234698e+09  4.39e-02 2.99e-09  1.68e+01    54s
  39   1.65827721e+09  1.67844450e+09  3.77e-02 3.54e-09  1.34e+01    55s
  40   1.66003301e+09  1.67663240e+09  3.06e-02 3.32e-09  1.10e+01    56s
  41   1.66102871e+09  1.67523285e+09  2.67e-02 3.43e-09  9.40e+00    57s
  42   1.66143811e+09  1.67392534e+09  2.52e-02 4.07e-09  8.26e+00    58s
  43   1.66234370e+09  1.67365942e+09  2.19e-02 3.81e-09  7.49e+00    59s
  44   1.66318751e+09  1.67275763e+09  1.88e-02 4.38e-09  6.33e+00    60s
  45   1.66386208e+09  1.67216940e+09  1.63e-02 3.47e-09  5.50e+00    61s
  46   1.66442223e+09  1.67119189e+09  1.43e-02 2.87e-09  4.48e+00    62s
  47   1.66499939e+09  1.67087459e+09  1.23e-02 2.98e-09  3.89e+00    63s
  48   1.66602626e+09  1.67053029e+09  8.60e-03 3.88e-09  2.98e+00    64s
  49   1.66641052e+09  1.66996996e+09  7.30e-03 3.43e-09  2.36e+00    65s
  50   1.66676672e+09  1.66982486e+09  6.06e-03 3.48e-09  2.02e+00    66s
  51   1.66705837e+09  1.66965021e+09  5.03e-03 3.76e-09  1.72e+00    67s
  52   1.66750860e+09  1.66931380e+09  3.50e-03 2.76e-09  1.20e+00    68s
  53   1.66808389e+09  1.66893263e+09  1.58e-03 3.50e-09  5.62e-01    69s
  54   1.66820590e+09  1.66877435e+09  1.19e-03 2.92e-09  3.76e-01    70s
  55   1.66832831e+09  1.66873966e+09  7.94e-04 2.93e-09  2.72e-01    70s
  56   1.66836018e+09  1.66870208e+09  6.91e-04 3.28e-09  2.26e-01    71s
  57   1.66840787e+09  1.66866549e+09  5.43e-04 3.10e-09  1.70e-01    72s
  58   1.66849622e+09  1.66862317e+09  2.65e-04 2.74e-09  8.40e-02    72s
  59   1.66855736e+09  1.66859883e+09  7.22e-05 3.35e-09  2.75e-02    73s
  60   1.66856597e+09  1.66859561e+09  4.74e-05 3.41e-09  1.96e-02    74s
  61   1.66857508e+09  1.66859136e+09  2.07e-05 3.58e-09  1.08e-02    75s
  62   1.66858056e+09  1.66858981e+09  6.11e-06 4.31e-09  6.15e-03    75s
  63   1.66858249e+09  1.66858574e+09  1.49e-06 3.19e-09  2.16e-03    76s
  64   1.66858285e+09  1.66858377e+09  7.48e-07 3.27e-09  6.11e-04    77s
  65   1.66858314e+09  1.66858339e+09  9.19e-08 3.12e-09  1.62e-04    78s
  66   1.66858320e+09  1.66858320e+09  4.75e-09 4.15e-09  3.37e-06    78s
  67   1.66858320e+09  1.66858320e+09  9.26e-09 3.95e-09  1.34e-09    79s

Barrier solved model in 67 iterations and 79.23 seconds (54.21 work units)
Optimal objective 1.66858320e+09


Root crossover log...

   21296 DPushes remaining with DInf 0.0000000e+00                79s
      75 DPushes remaining with DInf 0.0000000e+00                80s
       0 DPushes remaining with DInf 0.0000000e+00                82s

     895 PPushes remaining with PInf 2.2657343e-06                82s
       0 PPushes remaining with PInf 0.0000000e+00                82s

  Push phase complete: Pinf 0.0000000e+00, Dinf 3.1144069e-07     82s


Root simplex log...

Iteration    Objective       Primal Inf.    Dual Inf.      Time
   22149    1.6685832e+09   0.000000e+00   0.000000e+00     82s
Concurrent spin time: 0.02s

Solved with barrier
   22149    1.6685832e+09   0.000000e+00   0.000000e+00     82s

Root relaxation: objective 1.668583e+09, 22149 iterations, 70.92 seconds (28.10 work units)

    Nodes    |    Current Node    |     Objective Bounds      |     Work
 Expl Unexpl |  Obj  Depth IntInf | Incumbent    BestBd   Gap | It/Node Time

     0     0 1.6686e+09    0  612          - 1.6686e+09      -     -   85s
     0     0 1.6686e+09    0  621          - 1.6686e+09      -     -  155s
     0     0 1.6686e+09    0  636          - 1.6686e+09      -     -  181s
     0     0 1.6686e+09    0  632          - 1.6686e+09      -     -  184s
     0     0 1.6686e+09    0  563          - 1.6686e+09      -     -  236s
     0     0 1.6686e+09    0  578          - 1.6686e+09      -     -  253s
     0     0 1.6686e+09    0  575          - 1.6686e+09      -     -  254s
     0     0 1.6686e+09    0  585          - 1.6686e+09      -     -  269s
     0     0 1.6686e+09    0  588          - 1.6686e+09      -     -  283s
     0     0 1.6686e+09    0  582          - 1.6686e+09      -     -  291s
     0     0 1.6686e+09    0  554          - 1.6686e+09      -     -  300s
     0     0 1.6686e+09    0  578          - 1.6686e+09      -     -  306s
     0     0 1.6686e+09    0  584          - 1.6686e+09      -     -  318s
     0     0 1.6686e+09    0  573          - 1.6686e+09      -     -  323s
     0     0 1.6686e+09    0  569          - 1.6686e+09      -     -  330s
     0     2 1.6686e+09    0  561          - 1.6686e+09      -     -  488s
     1     4 1.6686e+09    1  568          - 1.6686e+09      -  1889  533s
     3     8 1.6686e+09    2  632          - 1.6686e+09      -  1878  612s
     7    16 1.6686e+09    3  630          - 1.6686e+09      -  1505  786s
    15    19 1.6685e+09    4  565          - 1.6686e+09      -  1459  900s

Cutting planes:
  Cover: 2
  Implied bound: 12
  MIR: 38
  Flow cover: 17
  GUB cover: 1
  Zero half: 10
  RLT: 5
  Relax-and-lift: 1

Explored 18 nodes (57193 simplex iterations) in 900.46 seconds (765.53 work units)
Thread count was 16 (of 16 available processors)

Solution count 0

Time limit reached
Best objective -, best bound 1.668560046323e+09, gap -
IIS computation: initial model status unknown, solving to determine model status
Presolve removed 29404 rows and 90712 columns (presolve time = 5s) ...
Presolve removed 29421 rows and 90725 columns
Presolve time: 9.46s
Presolved: 25714 rows, 752071 columns, 4279416 nonzeros
Variable types: 1478 continuous, 750593 integer (750593 binary)
Deterministic concurrent LP optimizer: primal simplex, dual simplex, and barrier
Showing barrier log only...

Root barrier log...

Elapsed ordering time = 7s
Ordering time: 8.60s

Barrier statistics:
 AA' NZ     : 1.848e+06
 Factor NZ  : 5.701e+06 (roughly 360 MB of memory)
 Factor Ops : 4.977e+09 (less than 1 second per iteration)
 Threads    : 5

                  Objective                Residual
Iter       Primal          Dual         Primal    Dual     Compl     Time
   0  -0.00000000e+00  3.57271499e+06  7.32e+09 0.00e+00  1.51e+04    25s
   1  -0.00000000e+00  3.25983041e+06  8.37e+08 9.71e-17  1.74e+03    26s
   2  -0.00000000e+00  2.04325228e+06  7.33e+07 1.11e-16  1.57e+02    27s
   3  -0.00000000e+00  2.02580586e+05  8.45e+06 4.12e-17  6.52e+00    28s
   4  -0.00000000e+00  1.46601731e+05  6.35e+06 4.26e-17  4.43e+00    28s
   5  -0.00000000e+00  5.64341417e+04  1.29e+06 2.20e-17  7.28e-01    29s
   6  -0.00000000e+00  3.44309261e+04  7.15e+05 2.21e-17  3.61e-01    30s
   7  -0.00000000e+00  2.44523899e+04  2.25e+05 1.58e-17  1.11e-01    31s
   8  -0.00000000e+00  1.08565780e+04  7.16e+04 4.46e-17  2.95e-02    31s
   9  -0.00000000e+00  3.33104106e+03  1.53e+04 1.49e-16  4.83e-03    32s
  10  -0.00000000e+00  2.71355634e+03  7.55e+03 6.88e-17  2.96e-03    33s
  11  -0.00000000e+00  1.86895653e+03  6.13e+03 1.35e-16  2.04e-03    34s
  12  -0.00000000e+00  1.33369081e+03  4.30e+03 4.08e-17  1.38e-03    34s
  13  -0.00000000e+00  5.23833590e+02  2.47e+03 6.15e-17  5.57e-04    35s
  14  -0.00000000e+00  2.16442799e+02  5.35e+02 1.42e-08  1.79e-04    36s
  15  -0.00000000e+00  1.11199490e+02  2.24e+02 1.46e-08  8.75e-05    37s
  16  -0.00000000e+00  8.10602547e+01  1.65e+02 1.24e-08  6.39e-05    38s
  17  -0.00000000e+00  6.61141672e+01  9.91e+01 9.74e-09  5.00e-05    39s
  18  -0.00000000e+00  4.60764270e+01  6.56e+01 5.29e-09  3.48e-05    39s
  19  -0.00000000e+00  3.95125917e+01  5.32e+01 6.41e-09  2.97e-05    40s
  20  -0.00000000e+00  3.39809991e+01  4.98e+01 7.50e-09  2.59e-05    41s
  21  -0.00000000e+00  2.62967738e+01  4.15e+01 1.03e-08  2.04e-05    42s
  22  -0.00000000e+00  2.14352816e+01  2.80e+01 1.91e-08  1.64e-05    43s
  23  -0.00000000e+00  1.69837955e+01  1.68e+01 2.53e-08  1.27e-05    44s
  24  -0.00000000e+00  1.33666844e+01  1.04e+01 3.20e-08  9.87e-06    45s
  25  -0.00000000e+00  1.10682230e+01  6.59e+00 3.87e-08  7.97e-06    46s
  26  -0.00000000e+00  5.56218826e+00  3.10e+00 4.17e-08  3.91e-06    47s
  27  -0.00000000e+00  2.91408281e+00  1.47e-01 3.78e-08  1.95e-06    48s
  28  -0.00000000e+00  8.05118425e-02  2.15e-04 4.01e-09  5.57e-08    49s
  29  -0.00000000e+00  7.08197154e-06  1.61e-10 6.43e-13  4.97e-12    50s
  30  -0.00000000e+00  1.09483247e-10  1.35e-10 9.95e-18  7.68e-17    51s

Barrier solved model in 30 iterations and 50.72 seconds (46.03 work units)
Optimal objective -0.00000000e+00

  Building initial crossover basis                                63s
  Building initial crossover basis                                65s
  Building initial crossover basis                                71s
  Building initial crossover basis                                75s
  Building initial crossover basis                                80s
  Building initial crossover basis                                85s
  Building initial crossover basis                                90s
  Building initial crossover basis                                95s
  Building initial crossover basis                               100s

Root crossover log...

   21363 DPushes remaining with DInf 0.0000000e+00               101s

      39 PPushes remaining with PInf 0.0000000e+00               101s
       0 PPushes remaining with PInf 0.0000000e+00               101s

  Push phase complete: Pinf 0.0000000e+00, Dinf 0.0000000e+00    101s


Root simplex log...

Iteration    Objective       Primal Inf.    Dual Inf.      Time
      42   -0.0000000e+00   0.000000e+00   0.000000e+00    101s
Concurrent spin time: 0.00s

Solved with barrier
      42   -0.0000000e+00   0.000000e+00   0.000000e+00    101s

Root relaxation: objective -0.000000e+00, 42 iterations, 88.60 seconds (46.16 work units)
Total elapsed time = 105.78s

    Nodes    |    Current Node    |     Objective Bounds      |     Work
 Expl Unexpl |  Obj  Depth IntInf | Incumbent    BestBd   Gap | It/Node Time

     0     0   -0.00000    0    6          -   -0.00000      -     -  110s
H    0     0                      -0.0000000   -0.00000  0.00%     -  111s

Explored 1 nodes (47573 simplex iterations) in 111.27 seconds (87.57 work units)
Thread count was 16 (of 16 available processors)

Solution count 1: -0 
No other solutions better than -0

Optimal solution found (tolerance 1.00e-04)
Warning: max constraint violation (7.9019e-06) exceeds tolerance
Best objective -0.000000000000e+00, best bound -0.000000000000e+00, gap 0.0000%
IIS runtime: 111.41 seconds (87.57 work units)

Gurobi 10.0.1 (win64) logging started Tue Mar 21 21:41:02 2023

Set parameter LogFile to value "logFiles/N-1L-180D/N-1L-7U-36F-23V-180D-b-basic.log"
Gurobi Optimizer version 10.0.1 build v10.0.1rc0 (win64)

CPU model: Intel(R) Core(TM) i7-10700 CPU @ 2.90GHz, instruction set [SSE2|AVX|AVX2]
Thread count: 8 physical cores, 16 logical processors, using up to 16 threads

Optimize a model with 55135 rows, 842796 columns and 5387834 nonzeros
Model fingerprint: 0xf1c1268f
Variable types: 1464 continuous, 841332 integer (841332 binary)
Coefficient statistics:
  Matrix range     [1e+00, 2e+05]
  Objective range  [4e+01, 2e+07]
  Bounds range     [1e+00, 1e+00]
  RHS range        [1e+00, 3e+06]
Presolve removed 29132 rows and 90712 columns (presolve time = 5s) ...
Presolve removed 29149 rows and 90725 columns
Presolve time: 9.26s
Presolved: 25986 rows, 752071 columns, 4381850 nonzeros
Variable types: 1478 continuous, 750593 integer (750593 binary)
Deterministic concurrent LP optimizer: primal simplex, dual simplex, and barrier
Showing barrier log only...

Root barrier log...

Elapsed ordering time = 7s
Ordering time: 8.37s

Barrier statistics:
 AA' NZ     : 1.896e+06
 Factor NZ  : 6.041e+06 (roughly 400 MB of memory)
 Factor Ops : 5.625e+09 (less than 1 second per iteration)
 Threads    : 5

                  Objective                Residual
Iter       Primal          Dual         Primal    Dual     Compl     Time
   0  -5.35697034e+16  1.72785567e+12  7.57e+09 6.30e+05  2.32e+11    24s
   1  -1.34773590e+16  2.20647709e+12  1.91e+09 5.25e+05  5.87e+10    25s
   2  -1.83040324e+15  1.97940945e+12  2.62e+08 2.10e-09  8.13e+09    25s
   3  -2.28534383e+13  1.62979532e+12  3.27e+06 1.86e-09  1.03e+08    26s
   4  -2.35646465e+12  8.49872794e+11  3.36e+05 1.86e-09  1.11e+07    27s
   5  -1.54722695e+12  6.80675500e+11  2.21e+05 1.75e-08  7.34e+06    27s
   6  -6.20941937e+11  6.52982386e+11  8.85e+04 2.89e-08  3.18e+06    28s
   7  -3.47669725e+11  4.70941418e+11  4.96e+04 8.38e-09  1.73e+06    29s
   8  -1.31819251e+11  3.14222055e+11  1.90e+04 3.31e-08  6.92e+05    29s
   9  -2.91844081e+10  1.40700961e+11  4.37e+03 1.40e-08  1.84e+05    30s
  10  -1.28025030e+10  6.53500916e+10  2.04e+03 8.61e-09  7.83e+04    31s
  11  -4.16108624e+09  3.06397377e+10  8.15e+02 2.99e-08  3.18e+04    32s
  12  -1.58363225e+09  1.89237627e+10  4.50e+02 1.99e-08  1.80e+04    32s
  13  -3.76094093e+07  1.28870920e+10  2.32e+02 1.46e-08  1.08e+04    33s
  14   8.39879180e+08  1.02880416e+10  1.10e+02 9.69e-09  7.34e+03    34s
  15   1.06555686e+09  8.03844212e+09  7.96e+01 7.10e-09  5.43e+03    34s
  16   1.22162419e+09  6.06729793e+09  5.84e+01 7.67e-09  3.82e+03    35s
  17   1.27304498e+09  4.83744339e+09  5.14e+01 8.36e-09  2.92e+03    36s
  18   1.31957110e+09  4.19146222e+09  4.52e+01 7.39e-09  2.40e+03    37s
  19   1.41345984e+09  3.88263693e+09  3.26e+01 9.27e-09  2.00e+03    38s
  20   1.49266251e+09  3.39653214e+09  2.16e+01 9.00e-09  1.52e+03    39s
  21   1.52752656e+09  3.04647893e+09  1.67e+01 9.60e-09  1.23e+03    40s
  22   1.54783509e+09  2.85248983e+09  1.37e+01 9.88e-09  1.05e+03    42s
  23   1.56715213e+09  2.73400257e+09  1.07e+01 1.09e-08  9.13e+02    43s
  24   1.59339488e+09  2.51237288e+09  6.64e+00 9.67e-09  6.89e+02    44s
  25   1.60424917e+09  2.28716176e+09  4.99e+00 9.08e-09  5.02e+02    45s
  26   1.60741437e+09  2.20102357e+09  4.53e+00 9.09e-09  4.34e+02    46s
  27   1.61609231e+09  2.02908865e+09  3.27e+00 7.33e-09  2.95e+02    47s
  28   1.62800463e+09  1.84107184e+09  1.67e+00 5.10e-09  1.46e+02    48s
  29   1.63613478e+09  1.78198633e+09  7.95e-01 4.13e-09  9.79e+01    49s
  30   1.63757422e+09  1.77361171e+09  6.89e-01 4.94e-09  9.11e+01    50s
  31   1.63788822e+09  1.76611805e+09  6.68e-01 5.24e-09  8.57e+01    50s
  32   1.64148333e+09  1.73900313e+09  4.77e-01 4.36e-09  6.48e+01    51s
  33   1.64416754e+09  1.71210640e+09  3.55e-01 3.71e-09  4.49e+01    52s
  34   1.64615744e+09  1.71006746e+09  3.04e-01 4.32e-09  4.22e+01    53s
  35   1.64819179e+09  1.70220968e+09  2.57e-01 4.55e-09  3.57e+01    54s
  36   1.65017633e+09  1.69797871e+09  2.16e-01 3.48e-09  3.15e+01    55s
  37   1.65147028e+09  1.68718458e+09  1.93e-01 3.11e-09  2.35e+01    56s
  38   1.65298346e+09  1.68508485e+09  1.69e-01 3.03e-09  2.11e+01    57s
  39   1.65531878e+09  1.68202087e+09  1.37e-01 2.76e-09  1.75e+01    58s
  40   1.65713053e+09  1.67907109e+09  1.12e-01 2.90e-09  1.44e+01    59s
  41   1.65883210e+09  1.67642103e+09  9.24e-02 2.69e-09  1.15e+01    60s
  42   1.66112480e+09  1.67507351e+09  6.70e-02 2.63e-09  9.16e+00    61s
  43   1.66177876e+09  1.67423945e+09  6.04e-02 2.85e-09  8.18e+00    62s
  44   1.66287671e+09  1.67343105e+09  4.95e-02 3.00e-09  6.94e+00    63s
  45   1.66366533e+09  1.67268820e+09  4.20e-02 3.64e-09  5.93e+00    64s
  46   1.66419247e+09  1.67173836e+09  3.70e-02 3.32e-09  4.95e+00    65s
  47   1.66492282e+09  1.67102535e+09  3.03e-02 3.34e-09  4.01e+00    66s
  48   1.66564244e+09  1.67055958e+09  2.39e-02 3.00e-09  3.23e+00    67s
  49   1.66607368e+09  1.67006485e+09  2.02e-02 3.24e-09  2.62e+00    68s
  50   1.66635452e+09  1.66971691e+09  1.77e-02 2.81e-09  2.20e+00    69s
  51   1.66675826e+09  1.66948332e+09  1.43e-02 2.79e-09  1.79e+00    71s
  52   1.66707982e+09  1.66927376e+09  1.15e-02 3.14e-09  1.44e+00    72s
  53   1.66739375e+09  1.66904059e+09  8.83e-03 3.07e-09  1.08e+00    73s
  54   1.66785542e+09  1.66882138e+09  4.93e-03 2.67e-09  6.34e-01    74s
  55   1.66800131e+09  1.66872759e+09  3.69e-03 2.12e-09  4.76e-01    75s
  56   1.66819422e+09  1.66869533e+09  2.09e-03 2.74e-09  3.30e-01    76s
  57   1.66830048e+09  1.66859450e+09  1.20e-03 2.28e-09  1.93e-01    78s
  58   1.66835151e+09  1.66855698e+09  7.75e-04 2.43e-09  1.35e-01    79s
  59   1.66840775e+09  1.66849512e+09  3.34e-04 1.90e-09  5.75e-02    80s
  60   1.66841056e+09  1.66847823e+09  3.12e-04 2.63e-09  4.45e-02    81s
  61   1.66842461e+09  1.66846819e+09  1.95e-04 2.34e-09  2.86e-02    82s
  62   1.66843818e+09  1.66845667e+09  8.78e-05 2.33e-09  1.21e-02    83s
  63   1.66844154e+09  1.66845372e+09  6.37e-05 2.31e-09  7.99e-03    84s
  64   1.66844699e+09  1.66845227e+09  2.38e-05 2.83e-09  3.47e-03    84s
  65   1.66845002e+09  1.66845111e+09  2.64e-06 2.39e-09  7.20e-04    85s
  66   1.66845039e+09  1.66845055e+09  4.02e-07 2.58e-09  1.08e-04    86s
  67   1.66845043e+09  1.66845047e+09  1.65e-07 2.32e-09  3.04e-05    87s
  68   1.66845046e+09  1.66845047e+09  2.55e-08 2.45e-09  7.39e-06    88s
  69   1.66845046e+09  1.66845046e+09  8.71e-09 3.18e-09  1.12e-06    89s
  70   1.66845046e+09  1.66845046e+09  3.43e-07 4.68e-09  3.84e-08    90s
  71   1.66845046e+09  1.66845046e+09  2.90e-07 3.94e-09  1.77e-09    91s

Barrier solved model in 71 iterations and 91.38 seconds (58.46 work units)
Optimal objective 1.66845046e+09


Root crossover log...

   21255 DPushes remaining with DInf 0.0000000e+00                92s
       0 DPushes remaining with DInf 0.0000000e+00                95s

     899 PPushes remaining with PInf 5.0639337e-05                95s
       0 PPushes remaining with PInf 0.0000000e+00                95s

  Push phase complete: Pinf 0.0000000e+00, Dinf 2.5970395e-07     95s


Root simplex log...

Iteration    Objective       Primal Inf.    Dual Inf.      Time
   22121    1.6684505e+09   0.000000e+00   0.000000e+00     95s
Concurrent spin time: 0.02s

Solved with barrier
   22121    1.6684505e+09   0.000000e+00   0.000000e+00     95s

Root relaxation: objective 1.668450e+09, 22121 iterations, 83.66 seconds (31.94 work units)

    Nodes    |    Current Node    |     Objective Bounds      |     Work
 Expl Unexpl |  Obj  Depth IntInf | Incumbent    BestBd   Gap | It/Node Time

     0     0 1.6685e+09    0  798          - 1.6685e+09      -     -   98s
     0     0 1.6684e+09    0  794          - 1.6684e+09      -     -  180s
     0     0 1.6684e+09    0  759          - 1.6684e+09      -     -  210s
     0     0 1.6684e+09    0  785          - 1.6684e+09      -     -  215s
     0     0 1.6684e+09    0  789          - 1.6684e+09      -     -  216s
     0     0 1.6684e+09    0  775          - 1.6684e+09      -     -  245s
H    0     0                    1.593398e+09 1.6684e+09  4.71%     -  284s
     0     0 1.6684e+09    0  773 1.5934e+09 1.6684e+09  4.71%     -  379s
     0     0 1.6684e+09    0  777 1.5934e+09 1.6684e+09  4.71%     -  381s
     0     0 1.6684e+09    0  782 1.5934e+09 1.6684e+09  4.71%     -  396s
H    0     0                    1.654176e+09 1.6684e+09  0.86%     -  658s
     0     0 1.6684e+09    0  773 1.6542e+09 1.6684e+09  0.86%     -  664s
     0     0 1.6684e+09    0  789 1.6542e+09 1.6684e+09  0.86%     -  671s

Cutting planes:
  Cover: 1
  Implied bound: 3
  MIR: 22
  Flow cover: 23
  GUB cover: 1
  Zero half: 3
  RLT: 2

Explored 1 nodes (32301 simplex iterations) in 683.81 seconds (858.67 work units)
Thread count was 16 (of 16 available processors)

Solution count 2: 1.65418e+09 1.5934e+09 

Solve interrupted
Best objective 1.654175586593e+09, best bound 1.668433888092e+09, gap 0.8620%
